
******************************************************************************
This program contains Ipopt, a library for large-scale nonlinear optimization.
 Ipopt is released as open source code under the Eclipse Public License (EPL).
         For more information visit http://projects.coin-or.org/Ipopt
******************************************************************************

This is Ipopt version 3.12.6, running with linear solver ma57.

Number of nonzeros in equality constraint Jacobian...:        0
Number of nonzeros in inequality constraint Jacobian.:        0
Number of nonzeros in Lagrangian Hessian.............:    28616

Total number of variables............................:     9604
                     variables with only lower bounds:     9604
                variables with lower and upper bounds:        0
                     variables with only upper bounds:        0
Total number of equality constraints.................:        0
Total number of inequality constraints...............:        0
        inequality constraints with only lower bounds:        0
   inequality constraints with lower and upper bounds:        0
        inequality constraints with only upper bounds:        0

iter    objective    inf_pr   inf_du lg(mu)  ||d||  lg(rg) alpha_du alpha_pr  ls
   0  1.8192246e+01 0.00e+00 1.02e+00  -1.0 0.00e+00    -  0.00e+00 0.00e+00   0
   1  2.9615562e+01 0.00e+00 2.66e-02  -1.0 1.80e-01    -  9.74e-01 1.00e+00f  1
   2  5.3720632e+01 0.00e+00 4.36e-01  -1.7 1.12e+00    -  4.71e-01 1.00e+00f  1
   3  7.3126350e+01 0.00e+00 1.65e-01  -1.7 1.52e+00    -  6.13e-01 1.00e+00f  1
   4  2.6892612e+01 0.00e+00 2.83e-08  -2.5 8.12e-01    -  1.00e+00 1.00e+00f  1
   5  3.3013700e+00 0.00e+00 1.50e-09  -3.8 8.67e-01    -  1.00e+00 1.00e+00f  1
   6 -2.3827754e+00 0.00e+00 1.50e-09  -3.8 3.76e-01    -  1.00e+00 1.00e+00f  1
   7 -3.8374834e+00 0.00e+00 3.15e-03  -5.7 1.85e-01    -  1.00e+00 9.04e-01f  1
   8 -4.0767126e+00 0.00e+00 2.62e-03  -5.7 6.99e-02    -  1.00e+00 8.62e-01f  1
   9 -4.1328886e+00 0.00e+00 5.39e-04  -5.7 2.54e-02    -  1.00e+00 9.50e-01f  1
iter    objective    inf_pr   inf_du lg(mu)  ||d||  lg(rg) alpha_du alpha_pr  ls
  10 -4.1406146e+00 0.00e+00 1.84e-11  -5.7 6.36e-03    -  1.00e+00 1.00e+00f  1
  11 -4.1469917e+00 0.00e+00 5.12e-04  -8.6 3.44e-03    -  1.00e+00 8.23e-01f  1
  12 -4.1483320e+00 0.00e+00 2.95e-04  -8.6 1.22e-03    -  1.00e+00 8.45e-01f  1
  13 -4.1486133e+00 0.00e+00 5.19e-05  -8.6 4.21e-04    -  1.00e+00 9.52e-01f  1
  14 -4.1486403e+00 0.00e+00 2.57e-14  -8.6 1.48e-04    -  1.00e+00 1.00e+00f  1
  15 -4.1486429e+00 0.00e+00 2.56e-14  -8.6 4.23e-05    -  1.00e+00 1.00e+00f  1

Number of Iterations....: 15

                                   (scaled)                 (unscaled)
Objective...............:  -4.1486429151646274e+00   -4.1486429151646274e+00
Dual infeasibility......:   2.5623493886394574e-14    2.5623493886394574e-14
Constraint violation....:   0.0000000000000000e+00    0.0000000000000000e+00
Complementarity.........:   7.6401983530851658e-09    7.6401983530851658e-09
Overall NLP error.......:   7.6401983530851658e-09    7.6401983530851658e-09


Number of objective function evaluations             = 16
Number of objective gradient evaluations             = 16
Number of equality constraint evaluations            = 0
Number of inequality constraint evaluations          = 0
Number of equality constraint Jacobian evaluations   = 0
Number of inequality constraint Jacobian evaluations = 0
Number of Lagrangian Hessian evaluations             = 15
Total CPU secs in IPOPT (w/o function evaluations)   =      0.170
Total CPU secs in NLP function evaluations           =      0.187

EXIT: Optimal Solution Found.
Note: The following floating-point exceptions are signalling: IEEE_UNDERFLOW_FLAG IEEE_DENORMAL

 ** SUBROUTINE CUTEST_csetup: Warning. The problem has no general constraints. 
 ** Other tools may be preferable ** 

************************ CUTEst statistics ************************


 Package used            :  IPOPT
 Problem                 :  JNLBRNG2  
 # variables             =           10000
 # constraints           =               0
 # objective functions   =        0.3300000E+02
 # objective gradients   =        0.1700000E+02
 # objective Hessians    =        0.1600000E+02
 # Hessian-vector prdct  =        0.0000000E+00
 # constraints functions =        0.0000000E+00
 # constraints gradients =        0.0000000E+00
 # constraints Hessians  =        0.0000000E+00
 Exit code               =               0
 Final f                 =  -0.4148643E+01
 Set up time             =            0.30 seconds
 Solve time              =            0.36 seconds


******************************************************************

System Time =       0.3610000014 s.
